Normalized Data/p03_15_normalized_split0.vrp
NAME:p03_15_NORMALIZED_split
BEST_KNOWN: 0
COMMENT: 0
DIMENSION: 392
CAPACITY: 100
EDGE_WEIGHT_FORMAT: FUNCTION
EDGE_WEIGHT_TYPE: EXACT_2D
NODE_COORD_SECTION
1 0.00000 0.00000
2 -50 44
3 -50 44
4 -50 44
5 -42 7
6 -42 7
7 -42 7
8 -42 7
9 -42 7
10 -42 7
11 -5 2
12 -5 2
13 -5 2
14 -5 2
15 -5 2
16 -27 -35
17 -27 -35
18 -27 -35
19 -30 -24
20 -30 -24
21 -30 -24
22 -30 -24
23 -46 28
24 -46 28
25 -46 28
26 -46 28
27 -46 28
28 -46 28
29 40 23
30 40 23
31 40 23
32 28 -26
33 28 -26
34 28 -26
35 28 -26
36 28 -26
37 28 -26
38 -44 -41
39 -44 -41
40 -44 -41
41 -44 -41
42 -44 -41
43 -44 -41
44 -30 14
45 -30 14
46 -30 14
47 -30 14
48 -30 14
49 8 -29
50 8 -29
51 8 -29
52 8 -29
53 8 -29
54 8 -29
55 17 23
56 17 23
57 17 23
58 17 23
59 10 14
60 10 14
61 34 -42
62 34 -42
63 34 -42
64 34 -42
65 13 1
66 13 1
67 13 1
68 -41 2
69 -41 2
70 -41 2
71 -41 2
72 -41 2
73 -41 2
74 -31 -5
75 -31 -5
76 -31 -5
77 -31 -5
78 -31 -5
79 -31 -5
80 37 18
81 37 18
82 37 18
83 40 -27
84 40 -27
85 40 -27
86 40 -27
87 -14 7
88 -14 7
89 -14 7
90 -4 -42
91 -4 -42
92 -4 -42
93 -4 -42
94 -4 -42
95 26 -11
96 26 -11
97 26 -11
98 26 -11
99 -14 -41
100 -14 -41
101 -14 -41
102 -14 -41
103 -14 -41
104 -14 -41
105 -37 -26
106 -37 -26
107 -37 -26
108 -37 -26
109 -37 -26
110 -37 -26
111 47 26
112 47 26
113 47 26
114 25 -36
115 25 -36
116 25 -36
117 -48 -29
118 -48 -29
119 -48 -29
120 -48 -29
121 -28 1
122 -28 1
123 -28 1
124 -28 1
125 -28 1
126 -16 -17
127 -16 -17
128 -16 -17
129 35 -42
130 35 -42
131 35 -42
132 35 -42
133 35 -42
134 18 -30
135 18 -30
136 18 -30
137 18 -30
138 10 37
139 10 37
140 10 37
141 48 11
142 48 11
143 48 11
144 -40 36
145 -40 36
146 -40 36
147 -40 36
148 -40 36
149 -40 36
150 12 -34
151 -37 -4
152 -37 -4
153 -15 -1
154 -15 -1
155 -15 -1
156 5 -17
157 5 -17
158 41 -27
159 41 -27
160 41 -27
161 41 -27
162 -35 33
163 -35 33
164 -35 33
165 -35 33
166 50 6
167 50 6
168 50 6
169 50 6
170 50 6
171 -34 22
172 -34 22
173 1 19
174 1 19
175 1 19
176 8 -39
177 8 -39
178 8 -39
179 8 -39
180 34 11
181 34 11
182 34 11
183 34 11
184 27 19
185 27 19
186 27 19
187 27 19
188 27 19
189 25 2
190 25 2
191 25 2
192 -45 34
193 -45 34
194 -45 34
195 -45 34
196 -45 34
197 -45 34
198 40 -4
199 40 -4
200 40 -4
201 40 -4
202 40 -4
203 -16 -16
204 -16 -16
205 -39 22
206 -39 22
207 -39 22
208 -39 22
209 44 18
210 44 18
211 44 18
212 44 18
213 44 18
214 44 18
215 44 18
216 -45 -32
217 -45 -32
218 17 -20
219 17 -20
220 17 -20
221 17 -20
222 -17 31
223 -17 31
224 -17 31
225 15 36
226 9 34
227 9 34
228 9 34
229 9 34
230 9 34
231 9 34
232 9 34
233 33 -5
234 33 -5
235 -10 36
236 -10 36
237 -10 36
238 -10 36
239 -10 36
240 -10 36
241 11 7
242 11 7
243 11 7
244 11 7
245 13 31
246 13 31
247 13 31
248 13 31
249 19 -14
250 19 -14
251 -26 5
252 -26 5
253 -26 5
254 -26 5
255 -26 5
256 16 -7
257 16 -7
258 16 -7
259 16 -7
260 16 -7
261 15 -7
262 9 14
263 9 14
264 9 14
265 -37 43
266 -37 43
267 -37 43
268 -37 43
269 -37 43
270 -1 -9
271 -1 -9
272 8 -11
273 8 -11
274 -45 19
275 -45 19
276 38 11
277 38 11
278 38 11
279 38 11
280 38 11
281 21 -29
282 21 -29
283 21 -29
284 21 -29
285 21 -29
286 -50 -38
287 -50 -38
288 -50 -38
289 -50 -38
290 -50 -38
291 45 26
292 45 26
293 30 -29
294 30 -29
295 30 -29
296 30 -29
297 27 11
298 27 11
299 27 11
300 27 11
301 -7 45
302 -7 45
303 -7 45
304 -7 45
305 -7 45
306 -17 -38
307 -17 -38
308 -17 -38
309 24 -1
310 24 -1
311 -42 -20
312 -42 -20
313 -42 -20
314 -15 -44
315 -15 -44
316 -15 -44
317 -15 -44
318 -15 -44
319 38 -4
320 38 -4
321 38 -4
322 38 -4
323 3 0
324 3 0
325 3 0
326 3 0
327 2 -40
328 2 -40
329 -12 -13
330 -12 -13
331 -12 -13
332 44 20
333 44 20
334 44 20
335 44 20
336 44 20
337 44 20
338 44 20
339 -15 36
340 -15 36
341 -15 36
342 -15 36
343 -15 36
344 -15 36
345 -15 36
346 40 -28
347 40 -28
348 40 -28
349 16 14
350 16 14
351 16 14
352 -2 39
353 -2 39
354 -2 39
355 -2 39
356 -2 39
357 24 -37
358 24 -37
359 24 -37
360 -33 -7
361 -33 -7
362 -33 -7
363 -33 -7
364 -33 -7
365 -33 -7
366 -39 15
367 -39 15
368 -39 15
369 -39 15
370 -39 15
371 -50 -1
372 -50 -1
373 -50 -1
374 -50 -1
375 44 -12
376 44 -12
377 -5 21
378 -5 21
379 -23 -17
380 -23 -17
381 49 -41
382 49 -41
383 49 -41
384 -29 -19
385 -29 -19
386 -29 -19
387 -29 -19
388 -29 -19
389 -29 -19
390 -5 0
391 -5 0
392 -5 0
DEMAND_SECTION
1 0
2 20
3 20
4 5
5 10
6 5
7 1
8 1
9 1
10 1
11 20
12 5
13 1
14 1
15 1
16 20
17 20
18 10
19 20
20 5
21 1
22 1
23 20
24 10
25 1
26 1
27 1
28 1
29 20
30 20
31 10
32 20
33 20
34 5
35 1
36 1
37 1
38 20
39 10
40 5
41 1
42 1
43 1
44 20
45 5
46 1
47 1
48 1
49 20
50 20
51 1
52 1
53 1
54 1
55 20
56 20
57 5
58 1
59 20
60 20
61 20
62 20
63 5
64 1
65 10
66 5
67 1
68 20
69 20
70 1
71 1
72 1
73 1
74 20
75 10
76 5
77 1
78 1
79 1
80 20
81 20
82 5
83 20
84 1
85 1
86 1
87 20
88 20
89 10
90 20
91 10
92 1
93 1
94 1
95 10
96 5
97 1
98 1
99 20
100 10
101 5
102 1
103 1
104 1
105 20
106 20
107 5
108 1
109 1
110 1
111 20
112 5
113 1
114 10
115 1
116 1
117 10
118 1
119 1
120 1
121 20
122 1
123 1
124 1
125 1
126 20
127 20
128 1
129 20
130 5
131 1
132 1
133 1
134 10
135 5
136 1
137 1
138 10
139 5
140 1
141 20
142 10
143 5
144 10
145 5
146 1
147 1
148 1
149 1
150 20
151 20
152 10
153 20
154 10
155 5
156 10
157 5
158 20
159 1
160 1
161 1
162 20
163 1
164 1
165 1
166 20
167 1
168 1
169 1
170 1
171 20
172 1
173 20
174 5
175 1
176 20
177 10
178 1
179 1
180 20
181 20
182 1
183 1
184 20
185 10
186 1
187 1
188 1
189 10
190 1
191 1
192 20
193 20
194 1
195 1
196 1
197 1
198 20
199 5
200 1
201 1
202 1
203 20
204 20
205 20
206 5
207 1
208 1
209 20
210 20
211 5
212 1
213 1
214 1
215 1
216 20
217 10
218 20
219 5
220 1
221 1
222 10
223 5
224 1
225 20
226 20
227 20
228 5
229 1
230 1
231 1
232 1
233 10
234 5
235 20
236 10
237 5
238 1
239 1
240 1
241 20
242 20
243 1
244 1
245 20
246 20
247 5
248 1
249 10
250 5
251 20
252 10
253 5
254 1
255 1
256 20
257 5
258 1
259 1
260 1
261 20
262 20
263 10
264 1
265 10
266 5
267 1
268 1
269 1
270 20
271 20
272 20
273 10
274 20
275 20
276 20
277 10
278 5
279 1
280 1
281 10
282 5
283 1
284 1
285 1
286 20
287 20
288 5
289 1
290 1
291 10
292 5
293 20
294 20
295 1
296 1
297 10
298 1
299 1
300 1
301 20
302 20
303 5
304 1
305 1
306 10
307 5
308 1
309 10
310 5
311 20
312 10
313 1
314 20
315 20
316 5
317 1
318 1
319 10
320 1
321 1
322 1
323 20
324 20
325 1
326 1
327 20
328 1
329 20
330 10
331 1
332 20
333 10
334 5
335 1
336 1
337 1
338 1
339 20
340 20
341 5
342 1
343 1
344 1
345 1
346 20
347 1
348 1
349 20
350 10
351 5
352 20
353 10
354 1
355 1
356 1
357 20
358 1
359 1
360 20
361 5
362 1
363 1
364 1
365 1
366 20
367 20
368 1
369 1
370 1
371 20
372 1
373 1
374 1
375 20
376 5
377 20
378 5
379 20
380 10
381 20
382 1
383 1
384 20
385 20
386 5
387 1
388 1
389 1
390 10
391 5
392 1
DEPOT_SECTION
1
-1
EOF