Normalized Data/p03_15_normalized_split0.sol
391 -6 9 4 5 8 7 371 373 370 372 69 72 70 67 68 71 123 124 154 391 390 -10 87 86 153 152 389 -14 12 11 13 147 146 144 196 191 1 2 3 268 265 266 264 267 -35 36 32 33 31 34 295 293 294 292 -40 41 38 42 39 37 285 289 286 287 288 118 116 117 119 -44 45 206 207 25 26 27 24 23 22 193 194 192 195 145 143 148 164 163 161 162 -47 46 43 369 366 365 251 252 253 254 250 -55 54 57 56 247 245 244 246 -59 58 263 261 262 172 174 173 -63 62 61 60 130 131 129 132 128 381 380 382 160 158 -64 65 66 299 296 297 298 186 187 183 185 184 348 350 349 -73 388 386 387 385 384 383 378 379 -78 76 77 75 74 360 363 364 362 361 359 150 151 121 120 122 -79 80 335 337 332 333 334 331 336 209 -81 110 111 112 290 291 28 30 29 242 243 -82 84 83 85 159 157 346 347 345 115 114 113 356 358 357 -88 367 368 273 274 205 204 170 171 -91 93 92 90 89 327 326 178 176 175 177 52 50 51 53 155 -102 103 100 99 101 98 314 316 313 317 315 305 306 -108 106 107 109 104 105 17 15 16 307 -156 49 48 149 136 133 135 134 282 280 281 283 284 -182 181 180 179 275 277 279 276 278 309 308 -190 188 189 168 165 169 167 166 140 142 141 208 213 212 211 214 210 -202 203 126 125 328 -221 222 223 340 344 339 343 341 342 338 234 235 237 239 238 -231 229 230 227 228 225 226 224 137 139 138 355 354 353 352 -233 232 319 318 320 321 199 197 201 200 198 375 374 97 94 95 96 257 259 -240 241 271 270 269 -260 256 258 255 249 248 220 217 219 218 272 -310 312 311 215 216 20 19 18 21 127 329 330 -323 322 325 324 -351 300 303 304 301 302 236 376 377 0 





OBJ=
2828.269
BEST_KNOWN=
0.000